5,30,980,973,969,957,923,922,919,874,872,839,806,767,726,691,627,456,424,406,357,353,350,319,309,284,268,245,210,158,103,98,4078,4025,5533,6254,5552,370,579,223,741,951,853,981,8,996,555,716,110,902,47,165,607,173,590,644,462,282,424,646,136,202,25,389,12,272,533,973,196,62,447,640,649,708,760,11,316,163,389,436,521,257,197,701,197,293,711,571,6,432,220,530,448,155,62,665,482,253,216,90,910,590,297,588,910,747,71,696,425,470,515,439,748,227,227,407,778,88,207,747,802,465,710,522,795,728,703,939,208,420,525,690,789,470,651,16,965,813,395,581,379,10,374,693,764,309,712,959,802,944,191,135,510,515,92,346,841,194,675,372,211,903,38,814,475,3,406,744,535,420,112,544,44,79,21,462,161,813,777,946,650,486,733,98,95,456,953